
  22   10
  10   10   10   10   10   10   10   10   10   10

   0   0   0   0   0   0   0   0   0   0   0  12 2 3 4 5 6 7 8 9 10 11 12 21 
   8   0   0   0  10   0   0   0   0   0   0   7 20 19 17 16 15 14 13 
   1   0   0   0   0   0   0   0   0  10   0   5 18 17 16 14 13 
   7  10   0   0   0   0   0   0   0   0   0   5 20 17 16 15 13 
   7   0   0  10   0   0   0   0   0   0   0   3 19 15 14 
   5   0   0   0   0  10   0   0   0   0   0   2 17 13 
   2  10   0   0   0   0   0   0   0   0   0   2 14 13 
   5   0   0   0   0   0   0   0   0  10   0   1 18 
   8   0   0   0   0  10   0   0   0   0   0   1 14 
   1   0   0   0   0   0  10   0   0   0   0   1 16 
   8   0   0   0   0  10   0   0   0   0   0   1 15 
   2   0  10   0   0   0   0   0   0   0   0   1 13 
  10   0   0   0   0   0   0   0  10   0   0   1 22
   2   0  10   0   0   0   0   0   0   0   0   1 22
   3   0   0  10   0   0   0   0   0   0   0   1 22
   9   0   0   0   0   0   0   0   0   0  10   1 22
   2   0   0   0   0   0   0   0   0  10   0   1 22
   3   0   0   0   0  10   0   0   0   0   0   1 22
   8   0   0   0  10   0   0   0   0   0   0   1 22
   8   0   0  10   0   0   0   0   0   0   0   1 22
   9   0   0   0  10   0   0   0   0   0   0   1 22
   0   0   0   0   0   0   0   0   0   0   0   0 
